Copyright (C) 2013-2015, Filipe Brandao
Build (method = -2)
  #dp: 2293
  Step-3' Graph: 60 vertices and 784 arcs (0.00s)
  Step-4' Graph: 60 vertices and 784 arcs (0.00s)
  #V4/#V3 = 1.00
  #A4/#A3 = 1.00
Ready! (0.00s)
Optimize a model with 121 rows, 785 columns and 2243 nonzeros
Found heuristic solution: objective 342
Presolve removed 32 rows and 38 columns
Presolve time: 0.00s
Presolved: 89 rows, 747 columns, 2137 nonzeros
Variable types: 0 continuous, 747 integer (0 binary)
Optimize a model with 89 rows, 747 columns and 2137 nonzeros
Presolved: 89 rows, 747 columns, 2137 nonzeros

Root barrier log...

Ordering time: 0.00s

Barrier statistics:
 AA' NZ     : 1.136e+03
 Factor NZ  : 2.237e+03
 Factor Ops : 7.540e+04 (less than 1 second per iteration)
 Threads    : 1

                  Objective                Residual
Iter       Primal          Dual         Primal    Dual     Compl     Time
   0   3.57781406e+03 -9.69460771e+03  3.13e+04 2.22e-16  5.67e+01     0s
   1   1.11755422e+03 -3.35454926e+03  4.91e+03 7.77e-16  9.90e+00     0s
   2   3.99532260e+02 -1.07979642e+03  1.99e+02 1.03e-14  1.18e+00     0s
   3   3.17155301e+02 -3.57316939e+02  1.91e+01 3.66e-15  4.56e-01     0s
   4   2.57319289e+02  1.62239075e+01  2.75e+00 1.67e-15  1.59e-01     0s
   5   2.29231627e+02  1.22574367e+02  8.85e-01 5.13e-16  7.03e-02     0s
   6   2.25262295e+02  1.75904818e+02  7.03e-01 4.41e-16  3.26e-02     0s
   7   2.12366640e+02  2.01925864e+02  1.67e-01 5.97e-16  6.91e-03     0s
   8   2.09638598e+02  2.08477586e+02  2.93e-02 5.62e-16  7.73e-04     0s
   9   2.09059063e+02  2.08901480e+02  3.64e-03 5.55e-16  1.05e-04     0s
  10   2.09000310e+02  2.08997706e+02  1.28e-05 4.16e-16  1.71e-06     0s
  11   2.09000000e+02  2.08999998e+02  3.50e-12 4.44e-16  1.71e-09     0s
  12   2.09000000e+02  2.09000000e+02  1.53e-12 4.44e-16  1.71e-12     0s

Barrier solved model in 12 iterations and 0.00 seconds
Optimal objective 2.09000000e+02


Root relaxation: objective 2.090000e+02, 180 iterations, 0.01 seconds

    Nodes    |    Current Node    |     Objective Bounds      |     Work
 Expl Unexpl |  Obj  Depth IntInf | Incumbent    BestBd   Gap | It/Node Time

*    0     0               0     209.0000000  209.00000  0.00%     -    0s

Explored 0 nodes (180 simplex iterations) in 0.01 seconds
Thread count was 1 (of 4 available processors)

Optimal solution found (tolerance 0.00e+00)
Best objective 2.090000000000e+02, best bound 2.090000000000e+02, gap 0.0%
Preprocessing time: 0.00 seconds
Gurobi run time: 0.01 seconds
Total run time: 0.01 seconds
Objective: 209
Solution:
5 x [i=1, i=61]
5 x [i=2, i=60]
4 x [i=3, i=59]
6 x [i=4]
4 x [i=4, i=58]
2 x [i=5, i=57]
2 x [i=5, i=59]
1 x [i=5, i=60]
1 x [i=5, i=61]
4 x [i=6, i=56]
3 x [i=7, i=55]
2 x [i=7, i=56]
1 x [i=8, i=54]
9 x [i=8, i=57]
8 x [i=9, i=53]
1 x [i=9, i=54]
11 x [i=10]
5 x [i=11, i=51]
3 x [i=11, i=52]
2 x [i=11, i=54]
4 x [i=12, i=50]
6 x [i=13, i=50]
7 x [i=14, i=48]
2 x [i=15, i=48]
10 x [i=15, i=49]
3 x [i=16, i=46]
5 x [i=16, i=47]
1 x [i=16, i=54]
3 x [i=17, i=45]
3 x [i=18, i=44]
1 x [i=18, i=45]
6 x [i=19, i=43]
5 x [i=20, i=42]
5 x [i=20, i=43]
1 x [i=21]
11 x [i=21, i=41]
6 x [i=22, i=40]
4 x [i=23, i=39]
2 x [i=24, i=39]
1 x [i=24, i=40]
5 x [i=25, i=37]
2 x [i=25, i=38]
1 x [i=26, i=36]
3 x [i=26, i=40]
2 x [i=27, i=35]
8 x [i=27, i=36]
6 x [i=28, i=34]
1 x [i=28, i=36]
7 x [i=29, i=33]
4 x [i=30, i=35]
1 x [i=31, i=32]
3 x [i=31, i=38]
1 x [i=32, i=33]
